# Objective value = -1.1899644798713889e+07
Slot(TOL203G,1) 1
Slot(BYG201G,1) 1
Slot(LIF633G,1) 1
Slot(LIF227F,1) 1
Slot(JAR619G,1) 1


Slot(LAN203G,2) 1
Slot(STA209G,2) 1
Slot(HBV601G,2) 1
Slot(UAU206M,2) 1
Slot(EDL205G,2) 1


Slot(BYG401G,3) 1
Slot(LIF214G,3) 1
Slot(LIF615M,3) 1
Slot(RAF201G,3) 1
Slot(LAN401G,3) 1
Slot(EFN408G,3) 1


Slot(LEF406G,4) 1
Slot(IDN401G,4) 1
Slot(EDL612M,4) 1
Slot(EDL203G,4) 1
Slot(STA205G,5) 1
Slot(EFN406G,5) 1
Slot(LIF410G,5) 1
Slot(LIF243F,5) 1
Slot(RAF404G,5) 1
Slot(VEL215F,5) 1
Slot(STA403M,6) 1
Slot(LIF201G,6) 1
Slot(REI201G,6) 1
Slot(VEL402G,6) 1
Slot(LEF616M,6) 1
Slot(UMV203M,6) 1
Slot(VEL601G,7) 1
Slot(EDL403G,7) 1
Slot(VEL218F,7) 1
Slot(EFN207G,7) 1
Slot(TOL203F,8) 1
Slot(JAR211G,8) 1
Slot(RAF401G,8) 1
Slot(LAN219G,8) 1
Slot(EFN202G,8) 1
Slot(TOL403G,8) 1
Slot(HBV401G,9) 1
Slot(JAR253F,9) 1
Slot(EDL402M,9) 1
Slot(BYG202M,9) 1
Slot(EFN208G,9) 1
Slot(LIF401G,10) 1
Slot(EFN404G,10) 1
Slot(HBV201G,10) 1
Slot(EDL201G,10) 1
Slot(EDL206G,10) 1
Slot(BYG203M,10) 1
Slot(RAF616M,11) 1
Slot(LAN205G,11) 1
Slot(JAR212G,11) 1
Slot(FER609G,11) 1
Slot(FER211F,11) 1
Slot(UMV213F,12) 1
Slot(EDL204G,12) 1
Slot(IDN402G,12) 1
Slot(STA202G,13) 1
Slot(LIF412M,13) 1
Slot(JAR417G,13) 1
Slot(UMV203G,13) 1
Slot(TOV201G,13) 1
Slot(HBV402G,13) 1
Slot(EFN205G,14) 1
Slot(EFN214G,14) 1
Slot(JAR418G,14) 1
Slot(VEL202G,14) 1
Slot(LAN410G,14) 1
Slot(LAN209F,14) 1
Slot(JAR415G,14) 1
Slot(FER208G,14) 1
Slot(UMV201G,14) 1
Slot(VEL405G,14) 1
Slot(IDN209F,15) 1
Slot(STA401G,15) 1
Slot(LIF215G,15) 1
Slot(JAR611G,15) 1
Slot(TOL203M,15) 1
Slot(RAF403G,16) 1
Slot(LEF617M,16) 1
Slot(UAU214M,16) 1
Slot(IDN603G,16) 1
Slot(STA203G,16) 1
Slot(MAS201F,16) 1
Slot(STA418M,16) 1
Slot(FER603M,17) 1
Slot(STA405G,17) 1
Slot(LIF635G,17) 1
Slot(REI202M,18) 1
Slot(STA207G,18) 1
Slot(BYG201M,18) 1
Slot(EFN612M,18) 1
Slot(JAR617G,19) 1
Slot(BYG601G,19) 1
Slot(JAR202G,19) 1
Slot(HBV203F,19) 1
Slot(VEL401G,19) 1
Slot(STA411G,19) 1
Slot(LAN604M,20) 1
Slot(TOL401G,20) 1
Slot(JED201G,20) 1
Slot(EDL402G,20) 1
Slot(LIF403G,20) 1
Slot(BYG603G,21) 1
Slot(IDN403G,21) 1
Slot(FER409G,21) 1
Slot(FER210F,21) 1
Slot(TOV602M,21) 1
Slot(RAF402G,21) 1
Slot(EDL401G,21) 1

Slot(EFN410G,22) 1
Slot(RAF601G,22) 1
Slot(TOL202M,22) 1
Slot(LIF614M,22) 1
Slot(VEL201G,22) 1
